benchmarks_vrp/CMT3/fixed_c_size/CMT3_2.vrp
NAME: CMT3_2
TYPE: CVRP
COMMENT: 826.14 - Cluster Nr.2
DIMENSION: 16
CAPACITY: 200
EDGE_WEIGHT_TYPE: EUC_2D
NODE_COORD_TYPE: TWOD_COORDS
NODE_COORD_SECTION: 
1 56 37
8 55 54
12 64 42
9 53 52
7 55 45
11 41 37
3 47 47
5 53 43
4 61 52
15 49 42
2 65 55
14 65 35
16 56 39
10 50 35
13 57 48
6 35 35
DEPOT_SECTION: 
6
-1
DEMAND_SECTION: 
10 19
5 14
16 36
15 13
6 0
2 14
13 23
14 3
12 9
8 26
4 3
11 16
9 11
7 13
3 13
1 6
EOF
