benchmarks_vrp/CMT3/fixed_c_size/CMT3_2.tour
NAME: CMT3_2 solution
TYPE: TOUR
TOUR_SECTION:
6 3 7 13 9 8 4 2 12 14 1 16 5 15 11 -1
6 10 -1
-1
EOF